n_res = 3;
rcap = [30, 40, 93];
rtype = [1, 1, 2];
n_tasks = 16;
modes = [ {1, 2, 3}, {4, 5, 6}, {7, 8, 9}, {10, 11, 12}, {13, 14, 15}, {16, 17, 18}, {19, 20, 21}, {22, 23, 24}, {25, 26, 27}, {28, 29, 30}, {31, 32, 33}, {34, 35, 36}, {37, 38, 39}, {40, 41, 42}, {43, 44, 45}, {46, 47, 48} ];
succ = [ {7, 11}, {4, 5, 6}, {16}, {9, 10, 15}, {8, 9, 10}, {9, 15, 16}, {8, 12, 15}, {13, 14}, {12}, {11, 12}, {13, 14}, {14}, {16}, {}, {}, {} ];
n_opt = 48;
dur = [2, 8, 9, 2, 4, 9, 1, 3, 10, 3, 4, 9, 1, 6, 7, 7, 7, 9, 4, 6, 10, 3, 5, 10, 3, 7, 7, 3, 5, 5, 6, 9, 10, 1, 1, 10, 1, 9, 9, 1, 6, 6, 1, 6, 7, 1, 1, 7];
rreq = [|  2,  0,  1,  0,  0,  0,  8,  7,  0,  0,  8,  0, 10,  7,  0,  5,  0,  0,  7,  4,  0,  0,  4,  3,  9,  0,  8,  0,  0,  7,  7,  3,  0,  0,  5,  3,  0,  0,  3,  2,  0,  2,  3,  0,  0,  5,  0,  5
        |  0,  6,  0,  4,  3,  2,  0,  0,  9,  8,  0,  1,  0,  0,  9,  0,  8,  6,  0,  0,  5, 10,  0,  0,  0,  6,  0,  5,  3,  0,  0,  0,  8,  7,  0,  0,  9,  6,  0,  0,  3,  0,  0,  9,  9,  0,  3,  0
        |  8,  5,  4,  9,  9,  8,  9,  4,  3,  1,  1,  1,  6,  6,  5,  7,  7,  5,  3,  3,  2,  6,  6,  4,  6,  4,  4,  4,  3,  4,  5,  5,  4,  7,  6,  3,  8,  6,  4,  7,  4,  5,  9,  8,  7,  7,  7,  6 |];
